12      4       
13      15      16      12      
0       0       0       0       0       3       2       3       4       
4       3       9       8       0       1       11      
7       0       0       2       0       2       7       8       
2       0       0       4       0       3       5       6       9       
1       6       0       0       0       1       7       
10      3       0       10      0       1       10      
1       0       1       0       7       2       10      11      
6       7       0       3       0       2       10      11      
9       7       10      2       8       1       12      
1       2       0       1       8       1       12      
1       0       3       0       0       1       12      
0       0       0       0       0       0       